DIMENSION: 22
TOUR_SECTION
6 37.56 12.19
15 35.49 14.32
11 36.08 -5.21
19 40.44 13.57
5 33.48 10.54
21 40.37 14.23
10 41.17 13.05
20 40.33 14.15
9 41.23 9.1
3 40.56 25.32
16 39.36 19.56
1 38.24 20.42
18 36.09 23
22 37.57 22.56
13 38.15 15.35
4 36.26 23.12
12 38.47 15.13
14 37.51 15.17
8 37.52 20.44
17 38.09 24.36
7 38.42 13.11
2 39.57 26.15
6 37.56 12.19
